(set-logic HORN)
(set-info :source |
    Benchmark: C_VC
    Output by Princess (http://www.philipp.ruemmer.org/princess.shtml)
|)
(set-info :status unknown)
(declare-fun inv_main21 (Int Int Int Int Int) Bool)
(declare-fun inv_main24 (Int Int Int Int Int) Bool)
(declare-fun inv_main25 (Int Int Int Int Int) Bool)
(declare-fun inv_main26 (Int Int Int Int Int) Bool)
(declare-fun inv_main28 (Int Int Int Int Int) Bool)
(declare-fun inv_main33 (Int Int Int Int Int) Bool)
(declare-fun inv_main34 (Int Int Int Int Int) Bool)
(declare-fun inv_main35 (Int Int Int Int Int) Bool)
(declare-fun inv_main38 (Int Int Int Int Int) Bool)
(declare-fun inv_main39 (Int Int Int Int Int) Bool)
(declare-fun inv_main40 (Int Int Int Int Int) Bool)
(declare-fun inv_main41 (Int Int Int Int Int) Bool)
(declare-fun inv_main44 (Int Int Int Int Int) Bool)
(declare-fun inv_main45 (Int Int Int Int Int) Bool)
(declare-fun inv_main47 (Int Int Int Int Int) Bool)
(declare-fun inv_main48 (Int Int Int Int Int) Bool)
(declare-fun inv_main49 (Int Int Int Int Int) Bool)
(declare-fun inv_main6 (Int Int Int Int) Bool)
(assert (forall ((var0 Int)) (forall ((var1 Int)) (forall ((var2 Int)) (forall ((var3 Int)) (inv_main6 var1 var3 var2 var0 ) ) ) ) ) )
(assert (forall ((var0 Int)) (forall ((var1 Int)) (forall ((var2 Int)) (forall ((var3 Int)) (forall ((var4 Int)) (or (not (inv_main24 var4 var0 var2 var1 var3 ) ) (inv_main26 var4 var0 var2 var1 var3 ) ) ) ) ) ) ) )
(assert (forall ((var0 Int)) (forall ((var1 Int)) (forall ((var2 Int)) (forall ((var3 Int)) (forall ((var4 Int)) (or (not (inv_main28 var4 var0 var2 var1 var3 ) ) (inv_main33 var4 var0 var2 var1 var3 ) ) ) ) ) ) ) )
(assert (forall ((var0 Int)) (forall ((var1 Int)) (forall ((var2 Int)) (forall ((var3 Int)) (forall ((var4 Int)) (or (not (inv_main33 var4 var0 var2 var1 var3 ) ) (inv_main34 var4 var0 var2 var1 var3 ) ) ) ) ) ) ) )
(assert (forall ((var0 Int)) (forall ((var1 Int)) (forall ((var2 Int)) (forall ((var3 Int)) (forall ((var4 Int)) (or (not (inv_main34 var4 var0 var2 var1 var3 ) ) (inv_main35 var4 var0 var2 var1 var3 ) ) ) ) ) ) ) )
(assert (forall ((var0 Int)) (forall ((var1 Int)) (forall ((var2 Int)) (forall ((var3 Int)) (forall ((var4 Int)) (or (not (inv_main38 var4 var0 var2 var1 var3 ) ) (inv_main39 var4 var0 var2 var1 var3 ) ) ) ) ) ) ) )
(assert (forall ((var0 Int)) (forall ((var1 Int)) (forall ((var2 Int)) (forall ((var3 Int)) (forall ((var4 Int)) (or (not (inv_main39 var4 var0 var2 var1 var3 ) ) (inv_main40 var4 var0 var2 var1 var3 ) ) ) ) ) ) ) )
(assert (forall ((var0 Int)) (forall ((var1 Int)) (forall ((var2 Int)) (forall ((var3 Int)) (forall ((var4 Int)) (or (not (inv_main40 var4 var0 var2 var1 var3 ) ) (inv_main41 var4 var0 var2 var1 var3 ) ) ) ) ) ) ) )
(assert (forall ((var0 Int)) (forall ((var1 Int)) (forall ((var2 Int)) (forall ((var3 Int)) (forall ((var4 Int)) (or (not (inv_main44 var4 var0 var2 var1 var3 ) ) (inv_main45 var4 var0 var2 var1 var3 ) ) ) ) ) ) ) )
(assert (forall ((var0 Int)) (forall ((var1 Int)) (forall ((var2 Int)) (forall ((var3 Int)) (forall ((var4 Int)) (or (not (inv_main25 var4 var0 var2 var1 var3 ) ) (inv_main47 var4 var0 var2 var1 var3 ) ) ) ) ) ) ) )
(assert (forall ((var0 Int)) (forall ((var1 Int)) (forall ((var2 Int)) (forall ((var3 Int)) (forall ((var4 Int)) (or (not (inv_main47 var4 var0 var2 var1 var3 ) ) (inv_main48 var4 var0 var2 var1 var3 ) ) ) ) ) ) ) )
(assert (forall ((var0 Int)) (forall ((var1 Int)) (forall ((var2 Int)) (forall ((var3 Int)) (forall ((var4 Int)) (or (not (inv_main48 var4 var0 var2 var1 var3 ) ) (inv_main49 var4 var0 var2 var1 var3 ) ) ) ) ) ) ) )
(assert (forall ((var0 Int)) (forall ((var1 Int)) (forall ((var2 Int)) (forall ((var3 Int)) (forall ((var4 Int)) (or (not (and (inv_main21 var4 var0 var2 var1 var3 ) (and (<= 0 (+ (+ var4 (* (- 1) (+ var0 1 ) ) ) (- 1) ) ) (and (<= 0 (+ (+ var4 (* (- 1) var0 ) ) (- 1) ) ) (<= 0 (+ (+ var3 (* (- 1) var2 ) ) (- 1) ) ) ) ) ) ) (inv_main24 var4 var0 var2 var1 var3 ) ) ) ) ) ) ) )
(assert (forall ((var0 Int)) (forall ((var1 Int)) (forall ((var2 Int)) (forall ((var3 Int)) (forall ((var4 Int)) (or (not (and (inv_main21 var4 var0 var2 var1 var3 ) (and (not (<= 0 (+ (+ var4 (* (- 1) (+ var0 1 ) ) ) (- 1) ) ) ) (and (<= 0 (+ (+ var4 (* (- 1) var0 ) ) (- 1) ) ) (<= 0 (+ (+ var3 (* (- 1) var2 ) ) (- 1) ) ) ) ) ) ) (inv_main25 var4 var0 var2 var1 var3 ) ) ) ) ) ) ) )
(assert (forall ((var0 Int)) (forall ((var1 Int)) (forall ((var2 Int)) (forall ((var3 Int)) (forall ((var4 Int)) (forall ((var5 Int)) (or (not (and (inv_main26 var5 var0 var3 var2 var4 ) (not (= var1 0 ) ) ) ) (inv_main25 var5 var0 var3 var2 var4 ) ) ) ) ) ) ) ) )
(assert (forall ((var0 Int)) (forall ((var1 Int)) (forall ((var2 Int)) (forall ((var3 Int)) (forall ((var4 Int)) (forall ((var5 Int)) (or (not (and (inv_main26 var5 var0 var2 var1 var4 ) (= var3 0 ) ) ) (inv_main28 var5 var0 var2 var1 var4 ) ) ) ) ) ) ) ) )
(assert (forall ((var0 Int)) (forall ((var1 Int)) (forall ((var2 Int)) (forall ((var3 Int)) (forall ((var4 Int)) (or (not (inv_main35 var4 var0 var2 var1 var3 ) ) (inv_main38 var4 (+ var0 1 ) (+ var2 1 ) var1 var3 ) ) ) ) ) ) ) )
(assert (forall ((var0 Int)) (forall ((var1 Int)) (forall ((var2 Int)) (forall ((var3 Int)) (forall ((var4 Int)) (or (not (inv_main41 var4 var0 var2 var1 var3 ) ) (inv_main44 var4 (+ var0 1 ) (+ var2 1 ) var1 var3 ) ) ) ) ) ) ) )
(assert (forall ((var0 Int)) (forall ((var1 Int)) (forall ((var2 Int)) (forall ((var3 Int)) (forall ((var4 Int)) (or (not (and (inv_main21 var4 var0 var2 var1 var3 ) (and (<= 0 (+ (+ var4 (* (- 1) var0 ) ) (- 1) ) ) (not (and (<= 0 (+ (+ var4 (* (- 1) var0 ) ) (- 1) ) ) (<= 0 (+ (+ var3 (* (- 1) var2 ) ) (- 1) ) ) ) ) ) ) ) (inv_main21 var4 var0 0 var1 var3 ) ) ) ) ) ) ) )
(assert (forall ((var0 Int)) (forall ((var1 Int)) (forall ((var2 Int)) (forall ((var3 Int)) (forall ((var4 Int)) (or (not (inv_main45 var4 var0 var2 var1 var3 ) ) (inv_main21 var4 var0 (+ var2 1 ) var1 var3 ) ) ) ) ) ) ) )
(assert (forall ((var0 Int)) (forall ((var1 Int)) (forall ((var2 Int)) (forall ((var3 Int)) (forall ((var4 Int)) (or (not (inv_main49 var4 var0 var2 var1 var3 ) ) (inv_main21 var4 (+ var0 1 ) (+ var2 1 ) var1 var3 ) ) ) ) ) ) ) )
(assert (forall ((var0 Int)) (forall ((var1 Int)) (forall ((var2 Int)) (forall ((var3 Int)) (forall ((var4 Int)) (forall ((var5 Int)) (or (not (and (inv_main6 var5 var0 var3 var1 ) (and (<= 0 (+ var4 (- 1) ) ) (not (<= 0 (+ (* (- 1) var2 ) (- 1) ) ) ) ) ) ) (inv_main21 var4 0 0 var2 (+ var2 (- 4) ) ) ) ) ) ) ) ) ) )
(assert (forall ((var0 Int)) (forall ((var1 Int)) (forall ((var2 Int)) (forall ((var3 Int)) (forall ((var4 Int)) (not (and (inv_main24 var4 var0 var2 var1 var3 ) (not (<= 0 (+ (+ var4 (* (- 1) (+ var0 1 ) ) ) (- 1) ) ) ) ) ) ) ) ) ) ) )
(assert (forall ((var0 Int)) (forall ((var1 Int)) (forall ((var2 Int)) (forall ((var3 Int)) (forall ((var4 Int)) (not (and (inv_main26 var4 var0 var2 var1 var3 ) (not (<= 0 var0 ) ) ) ) ) ) ) ) ) )
(assert (forall ((var0 Int)) (forall ((var1 Int)) (forall ((var2 Int)) (forall ((var3 Int)) (forall ((var4 Int)) (not (and (inv_main28 var4 var0 var2 var1 var3 ) (not (<= 0 (+ (+ var4 (* (- 1) var0 ) ) (- 1) ) ) ) ) ) ) ) ) ) ) )
(assert (forall ((var0 Int)) (forall ((var1 Int)) (forall ((var2 Int)) (forall ((var3 Int)) (forall ((var4 Int)) (not (and (inv_main33 var4 var0 var2 var1 var3 ) (not (<= 0 var0 ) ) ) ) ) ) ) ) ) )
(assert (forall ((var0 Int)) (forall ((var1 Int)) (forall ((var2 Int)) (forall ((var3 Int)) (forall ((var4 Int)) (not (and (inv_main34 var4 var0 var2 var1 var3 ) (not (<= 0 (+ (+ var1 (* (- 1) var2 ) ) (- 1) ) ) ) ) ) ) ) ) ) ) )
(assert (forall ((var0 Int)) (forall ((var1 Int)) (forall ((var2 Int)) (forall ((var3 Int)) (forall ((var4 Int)) (not (and (inv_main35 var4 var0 var2 var1 var3 ) (not (<= 0 var2 ) ) ) ) ) ) ) ) ) )
(assert (forall ((var0 Int)) (forall ((var1 Int)) (forall ((var2 Int)) (forall ((var3 Int)) (forall ((var4 Int)) (not (and (inv_main38 var4 var0 var2 var1 var3 ) (not (<= 0 (+ (+ var4 (* (- 1) var0 ) ) (- 1) ) ) ) ) ) ) ) ) ) ) )
(assert (forall ((var0 Int)) (forall ((var1 Int)) (forall ((var2 Int)) (forall ((var3 Int)) (forall ((var4 Int)) (not (and (inv_main39 var4 var0 var2 var1 var3 ) (not (<= 0 var0 ) ) ) ) ) ) ) ) ) )
(assert (forall ((var0 Int)) (forall ((var1 Int)) (forall ((var2 Int)) (forall ((var3 Int)) (forall ((var4 Int)) (not (and (inv_main40 var4 var0 var2 var1 var3 ) (not (<= 0 (+ (+ var1 (* (- 1) var2 ) ) (- 1) ) ) ) ) ) ) ) ) ) ) )
(assert (forall ((var0 Int)) (forall ((var1 Int)) (forall ((var2 Int)) (forall ((var3 Int)) (forall ((var4 Int)) (not (and (inv_main41 var4 var0 var2 var1 var3 ) (not (<= 0 var2 ) ) ) ) ) ) ) ) ) )
(assert (forall ((var0 Int)) (forall ((var1 Int)) (forall ((var2 Int)) (forall ((var3 Int)) (forall ((var4 Int)) (not (and (inv_main44 var4 var0 var2 var1 var3 ) (not (<= 0 (+ (+ var1 (* (- 1) var2 ) ) (- 1) ) ) ) ) ) ) ) ) ) ) )
(assert (forall ((var0 Int)) (forall ((var1 Int)) (forall ((var2 Int)) (forall ((var3 Int)) (forall ((var4 Int)) (not (and (inv_main45 var4 var0 var2 var1 var3 ) (not (<= 0 var2 ) ) ) ) ) ) ) ) ) )
(assert (forall ((var0 Int)) (forall ((var1 Int)) (forall ((var2 Int)) (forall ((var3 Int)) (forall ((var4 Int)) (not (and (inv_main25 var4 var0 var2 var1 var3 ) (not (<= 0 (+ (+ var4 (* (- 1) var0 ) ) (- 1) ) ) ) ) ) ) ) ) ) ) )
(assert (forall ((var0 Int)) (forall ((var1 Int)) (forall ((var2 Int)) (forall ((var3 Int)) (forall ((var4 Int)) (not (and (inv_main47 var4 var0 var2 var1 var3 ) (not (<= 0 var0 ) ) ) ) ) ) ) ) ) )
(assert (forall ((var0 Int)) (forall ((var1 Int)) (forall ((var2 Int)) (forall ((var3 Int)) (forall ((var4 Int)) (not (and (inv_main48 var4 var0 var2 var1 var3 ) (not (<= 0 (+ (+ var1 (* (- 1) var2 ) ) (- 1) ) ) ) ) ) ) ) ) ) ) )
(assert (forall ((var0 Int)) (forall ((var1 Int)) (forall ((var2 Int)) (forall ((var3 Int)) (forall ((var4 Int)) (not (and (inv_main49 var4 var0 var2 var1 var3 ) (not (<= 0 var2 ) ) ) ) ) ) ) ) ) )
(check-sat)
